\ENCODING=ISO-8859-1
\Problem name: ilog.cplex

Minimize
 obj1: 93768 x1 + 105666 x2 + 103881 x3 + 101005 x4 + 104289 x5 + 98792 x6
       + 96328 x7 + 106728 x8 + 94087 x9 + 100221 x10 + 94011 x11 + 95406 x12
       + 99042 x13 + 92581 x14 + 91048 x15 + 105378 x16 + 108221 x17
       + 97381 x18 + 100540 x19 + 100540 x20 + 106293 x21 + 100601 x22
       + 91326 x23 + 103878 x24 + 95870 x25 + 99567 x26 + 102329 x27
       + 93028 x28 + 102680 x29 + 101302 x30 + 92638 x31 + 93693 x32
       + 98382 x33 + 101488 x34 + 102709 x35 + 103500 x36 + 103355 x37
       + 92723 x38 + 104870 x39 + 106239 x40 + 94938 x41 + 90934 x42
       + 109794 x43 + 94410 x44 + 105356 x45 + 109597 x46 + 109673 x47
       + 106632 x48 + 107983 x49 + 92851 x50 + 100651 x51 + 95539 x52
       + 92806 x53 + 99847 x54 + 101754 x55 + 107793 x56 + 94487 x57
       + 102797 x58 + 93665 x59 + 106329 x60 + 108813 x61 + 107506 x62
       + 92575 x63 + 90442 x64 + 100545 x65 + 98141 x66 + 100877 x67
       + 103936 x68 + 106148 x69 + 107449 x70 + 105025 x71 + 100024 x72
       + 93175 x73 + 93589 x74 + 102309 x75 + 90794 x76 + 91916 x77
       + 107597 x78 + 101526 x79 + 101832 x80 + 101527 x81 + 102815 x82
       + 109593 x83 + 102938 x84 + 107678 x85 + 108221 x86 + 103821 x87
       + 101831 x88 + 94258 x89 + 93910 x90 + 97868 x91 + 109309 x92
       + 107800 x93 + 98826 x94 + 98314 x95 + 91543 x96 + 100006 x97
       + 108410 x98 + 98346 x99 + 98023 x100 + 92113 x101 + 104980 x102
       + 106092 x103 + 109096 x104 + 95285 x105 + 104842 x106 + 107760 x107
       + 91725 x108 + 105759 x109 + 109003 x110 + 94976 x111 + 106650 x112
       + 107676 x113 + 104249 x114 + 100655 x115 + 93821 x116 + 107812 x117
       + 106333 x118 + 91007 x119 + 105996 x120 + 103495 x121 + 97459 x122
       + 99378 x123 + 97605 x124 + 97540 x125 + 102579 x126 + 96854 x127
       + 101539 x128 + 93874 x129 + 108655 x130 + 108048 x131 + 94397 x132
       + 90977 x133 + 104061 x134 + 94284 x135 + 106608 x136 + 99353 x137
       + 98851 x138 + 95798 x139 + 90200 x140 + 103931 x141 + 100926 x142
       + 109566 x143 + 94089 x144 + 92646 x145 + 107949 x146 + 100045 x147
       + 94417 x148 + 98411 x149 + 90354 x150 + 106931 x151 + 101350 x152
       + 97945 x153 + 90642 x154 + 91178 x155 + 105515 x156 + 102882 x157
       + 94715 x158 + 93993 x159 + 101814 x160 + 95709 x161 + 103893 x162
       + 106256 x163 + 96325 x164 + 95726 x165 + 90033 x166 + 93476 x167
       + 103961 x168 + 93714 x169 + 94313 x170 + 93908 x171 + 108528 x172
       + 94427 x173 + 106217 x174 + 101403 x175 + 92068 x176 + 105707 x177
       + 102977 x178 + 94764 x179 + 99675 x180 + 108936 x181 + 103418 x182
       + 106462 x183 + 102882 x184 + 109511 x185 + 92351 x186 + 105336 x187
       + 97216 x188 + 90533 x189 + 99495 x190 + 100249 x191 + 97698 x192
       + 98120 x193 + 90371 x194 + 94647 x195 + 99790 x196 + 92516 x197
       + 105670 x198 + 95618 x199 + 92729 x200 + 107171 x201 + 92637 x202
       + 103976 x203 + 96949 x204 + 109737 x205 + 93064 x206 + 99892 x207
       + 104948 x208 + 103317 x209 + 104871 x210 + 102217 x211 + 91173 x212
       + 93867 x213 + 104239 x214 + 97075 x215 + 100594 x216 + 101984 x217
       + 93084 x218 + 107122 x219 + 93375 x220 + 90649 x221 + 106638 x222
       + 97006 x223 + 90207 x224 + 109348 x225 + 104187 x226 + 101408 x227
       + 105811 x228 + 99109 x229 + 97473 x230 + 97061 x231 + 94826 x232
       + 103096 x233 + 103357 x234 + 95462 x235 + 94158 x236 + 102950 x237
       + 99963 x238 + 93936 x239 + 96377 x240 + 92435 x241 + 98887 x242
       + 109324 x243 + 109830 x244 + 106753 x245 + 99910 x246 + 90742 x247
       + 92898 x248 + 108475 x249 + 109267 x250 + 97665 x251 + 97353 x252
       + 107444 x253 + 99433 x254 + 90049 x255 + 99684 x256 + 109496 x257
       + 109938 x258 + 95550 x259 + 92187 x260 + 92004 x261 + 90122 x262
       + 103093 x263 + 95906 x264 + 102354 x265 + 93040 x266 + 105817 x267
       + 98649 x268 + 92756 x269 + 90166 x270 + 95766 x271 + 108814 x272
       + 98612 x273 + 92340 x274 + 109229 x275 + 94414 x276 + 107994 x277
       + 100404 x278 + 102668 x279 + 106773 x280 + 93409 x281 + 92275 x282
       + 99330 x283 + 96781 x284 + 95045 x285 + 91927 x286 + 107469 x287
       + 105708 x288 + 93283 x289 + 100182 x290 + 92491 x291 + 92271 x292
       + 107512 x293 + 97214 x294 + 107431 x295 + 102971 x296 + 108135 x297
       + 92326 x298 + 108804 x299 + 103697 x300 + 107157 x301 + 99884 x302
       + 100585 x303 + 93908 x304 + 92900 x305 + 95821 x306 + 97966 x307
       + 101425 x308 + 104557 x309 + 101640 x310 + 91726 x311 + 96821 x312
       + 102342 x313 + 101520 x314 + 98830 x315 + 102828 x316 + 107959 x317
       + 106230 x318 + 96238 x319 + 103857 x320 + 103784 x321 + 90345 x322
       + 92406 x323 + 93243 x324 + 98487 x325 + 107889 x326 + 108665 x327
       + 93703 x328 + 107234 x329 + 100205 x330 + 99972 x331 + 90246 x332
       + 96209 x333 + 105960 x334 + 106401 x335 + 103748 x336 + 108366 x337
       + 109906 x338 + 104264 x339 + 102941 x340 + 100182 x341 + 104428 x342
       + 98899 x343 + 102716 x344 + 97630 x345 + 105847 x346 + 109935 x347
       + 107481 x348 + 103666 x349 + 106106 x350 + 109663 x351 + 91726 x352
       + 105890 x353 + 95193 x354 + 105316 x355 + 95001 x356 + 104726 x357
       + 93262 x358 + 93144 x359 + 94806 x360 + 95792 x361 + 101199 x362
       + 107881 x363 + 100459 x364 + 100722 x365 + 98953 x366 + 91761 x367
       + 96736 x368 + 103591 x369 + 90929 x370 + 92260 x371 + 96926 x372
       + 92317 x373 + 102651 x374 + 93118 x375 + 105512 x376 + 98706 x377
       + 109305 x378 + 90661 x379 + 103335 x380 + 101203 x381 + 98318 x382
       + 101677 x383 + 93126 x384 + 91435 x385 + 108472 x386 + 93948 x387
       + 103917 x388 + 103348 x389 + 94001 x390 + 106059 x391 + 109123 x392
       + 102005 x393 + 93716 x394 + 109177 x395 + 104984 x396 + 108055 x397
       + 102388 x398 + 100272 x399 + 103577 x400 + 97730 x401 + 103979 x402
       + 98676 x403 + 95181 x404 + 93971 x405 + 105673 x406 + 96077 x407
       + 93900 x408 + 104030 x409 + 92156 x410 + 93945 x411 + 101548 x412
       + 95404 x413 + 93843 x414 + 93091 x415 + 104666 x416 + 107188 x417
       + 91138 x418 + 97245 x419 + 90980 x420 + 98602 x421 + 97790 x422
       + 109700 x423 + 104641 x424 + 94565 x425 + 104308 x426 + 104597 x427
       + 106101 x428 + 105170 x429 + 95877 x430 + 98096 x431 + 94860 x432
       + 104071 x433 + 104446 x434 + 98114 x435 + 96287 x436 + 94551 x437
       + 100389 x438 + 90405 x439 + 107346 x440 + 91451 x441 + 95639 x442
       + 103443 x443 + 100284 x444 + 102131 x445 + 97196 x446 + 104938 x447
       + 98222 x448 + 100325 x449 + 97596 x450 + 97249 x451 + 92428 x452
       + 104096 x453 + 101945 x454 + 102458 x455 + 93320 x456 + 91073 x457
       + 100507 x458 + 92477 x459 + 102979 x460 + 95512 x461 + 96603 x462
       + 99180 x463 + 99371 x464 + 103733 x465 + 104987 x466 + 93663 x467
       + 99418 x468 + 106315 x469 + 93658 x470 + 105558 x471 + 104626 x472
       + 106629 x473 + 90578 x474 + 92893 x475 + 107764 x476 + 102758 x477
       + 92133 x478 + 92979 x479 + 99500 x480 + 108608 x481 + 106111 x482
       + 98137 x483 + 100503 x484 + 101169 x485 + 108831 x486 + 93982 x487
       + 96722 x488 + 92575 x489 + 98616 x490 + 92548 x491 + 93385 x492
       + 108014 x493 + 105919 x494 + 107695 x495 + 106713 x496 + 103506 x497
       + 94187 x498 + 96061 x499 + 136762 x500 + 43097 x501 + 38717 x502
       + 43083 x503 + 42359 x504 + 38694 x505 + 39800 x506 + 36970 x507
       + 43650 x508 + 40797 x509 + 39460 x510 + 39957 x511 + 37331 x512
       + 40487 x513 + 36235 x514 + 43093 x515 + 43590 x516 + 36926 x517
       + 36395 x518 + 39176 x519 + 41103 x520 + 40112 x521 + 39838 x522
       + 40364 x523 + 38453 x524 + 43552 x525 + 38341 x526 + 36561 x527
       + 41557 x528 + 41745 x529 + 41499 x530 + 42622 x531 + 36584 x532
       + 39790 x533 + 38618 x534 + 36173 x535 + 43048 x536 + 39636 x537
       + 40403 x538 + 42462 x539 + 37811 x540 + 37449 x541 + 42726 x542
       + 37948 x543 + 43473 x544 + 41239 x545 + 43840 x546 + 40421 x547
       + 42124 x548 + 41361 x549 + 29330 x550
Subject To
 c1:   x3 + x16 - x21 - x24 + x25 + x27 - x39 - x40 - x41 + x48  = 0
 c2:   x53 + x66 - x71 - x74 + x75 + x77 - x89 - x90 - x91 + x98  = 0
 c3:   x103 + x116 - x121 - x124 + x125 + x127 - x139 - x140 - x141 + x148  = 0
 c4:   x153 + x166 - x171 - x174 + x175 + x177 - x189 - x190 - x191 + x198  = 0
 c5:   x203 + x216 - x221 - x224 + x225 + x227 - x239 - x240 - x241 + x248  = 1
 c6:   x253 + x266 - x271 - x274 + x275 + x277 - x289 - x290 - x291 + x298  = 0
 c7:   x303 + x316 - x321 - x324 + x325 + x327 - x339 - x340 - x341 + x348  = 0
 c8:   x353 + x366 - x371 - x374 + x375 + x377 - x389 - x390 - x391 + x398  = 0
 c9:   x403 + x416 - x421 - x424 + x425 + x427 - x439 - x440 - x441 + x448  = 0
 c10:  x453 + x466 - x471 - x474 + x475 + x477 - x489 - x490 - x491 + x498  = 0
 c11:  - x2 + x9 + x13 - x16 + x17 - x18 + x23 - x26 - x37 + x38 - x44  = 0
 c12:  - x52 + x59 + x63 - x66 + x67 - x68 + x73 - x76 - x87 + x88 - x94  = 0
 c13:  - x102 + x109 + x113 - x116 + x117 - x118 + x123 - x126 - x137 + x138
       - x144  = 0
 c14:  - x152 + x159 + x163 - x166 + x167 - x168 + x173 - x176 - x187 + x188
       - x194  = -1
 c15:  - x202 + x209 + x213 - x216 + x217 - x218 + x223 - x226 - x237 + x238
       - x244  = 0
 c16:  - x252 + x259 + x263 - x266 + x267 - x268 + x273 - x276 - x287 + x288
       - x294  = 1
 c17:  - x302 + x309 + x313 - x316 + x317 - x318 + x323 - x326 - x337 + x338
       - x344  = 0
 c18:  - x352 + x359 + x363 - x366 + x367 - x368 + x373 - x376 - x387 + x388
       - x394  = 0
 c19:  - x402 + x409 + x413 - x416 + x417 - x418 + x423 - x426 - x437 + x438
       - x444  = 0
 c20:  - x452 + x459 + x463 - x466 + x467 - x468 + x473 - x476 - x487 + x488
       - x494  = -1
 c21:  x1 + x5 - x8 - x17 + x22 - x25 + x37 + x42 + x47  = 1
 c22:  x51 + x55 - x58 - x67 + x72 - x75 + x87 + x92 + x97  = 0
 c23:  x101 + x105 - x108 - x117 + x122 - x125 + x137 + x142 + x147  = 0
 c24:  x151 + x155 - x158 - x167 + x172 - x175 + x187 + x192 + x197  = 0
 c25:  x201 + x205 - x208 - x217 + x222 - x225 + x237 + x242 + x247  = 0
 c26:  x251 + x255 - x258 - x267 + x272 - x275 + x287 + x292 + x297  = 0
 c27:  x301 + x305 - x308 - x317 + x322 - x325 + x337 + x342 + x347  = 0
 c28:  x351 + x355 - x358 - x367 + x372 - x375 + x387 + x392 + x397  = 0
 c29:  x401 + x405 - x408 - x417 + x422 - x425 + x437 + x442 + x447  = 0
 c30:  x451 + x455 - x458 - x467 + x472 - x475 + x487 + x492 + x497  = 0
 c31:  - x1 - x3 + x14 + x15 + x20 + x24 - x28 + x43 - x49  = 0
 c32:  - x51 - x53 + x64 + x65 + x70 + x74 - x78 + x93 - x99  = 0
 c33:  - x101 - x103 + x114 + x115 + x120 + x124 - x128 + x143 - x149  = 0
 c34:  - x151 - x153 + x164 + x165 + x170 + x174 - x178 + x193 - x199  = 0
 c35:  - x201 - x203 + x214 + x215 + x220 + x224 - x228 + x243 - x249  = 0
 c36:  - x251 - x253 + x264 + x265 + x270 + x274 - x278 + x293 - x299  = 0
 c37:  - x301 - x303 + x314 + x315 + x320 + x324 - x328 + x343 - x349  = 1
 c38:  - x351 - x353 + x364 + x365 + x370 + x374 - x378 + x393 - x399  = 0
 c39:  - x401 - x403 + x414 + x415 + x420 + x424 - x428 + x443 - x449  = 0
 c40:  - x451 - x453 + x464 + x465 + x470 + x474 - x478 + x493 - x499  = 0
 c41:  x2 - x6 + x7 - x11 - x12 + x19 - x23 + x28 + x41 + x45 + x46 - x47  = 0
 c42:  x52 - x56 + x57 - x61 - x62 + x69 - x73 + x78 + x91 + x95 + x96 - x97
        = 0
 c43:  x102 - x106 + x107 - x111 - x112 + x119 - x123 + x128 + x141 + x145
       + x146 - x147  = 0
 c44:  x152 - x156 + x157 - x161 - x162 + x169 - x173 + x178 + x191 + x195
       + x196 - x197  = 0
 c45:  x202 - x206 + x207 - x211 - x212 + x219 - x223 + x228 + x241 + x245
       + x246 - x247  = 0
 c46:  x252 - x256 + x257 - x261 - x262 + x269 - x273 + x278 + x291 + x295
       + x296 - x297  = 0
 c47:  x302 - x306 + x307 - x311 - x312 + x319 - x323 + x328 + x341 + x345
       + x346 - x347  = 0
 c48:  x352 - x356 + x357 - x361 - x362 + x369 - x373 + x378 + x391 + x395
       + x396 - x397  = -1
 c49:  x402 - x406 + x407 - x411 - x412 + x419 - x423 + x428 + x441 + x445
       + x446 - x447  = 0
 c50:  x452 - x456 + x457 - x461 - x462 + x469 - x473 + x478 + x491 + x495
       + x496 - x497  = 0
 c51:  x6 - x15 - x19 - x22 + x30 - x34 + x36 + x50  = 0
 c52:  x56 - x65 - x69 - x72 + x80 - x84 + x86 + x100  = -1
 c53:  x106 - x115 - x119 - x122 + x130 - x134 + x136 + x150  = 0
 c54:  x156 - x165 - x169 - x172 + x180 - x184 + x186 + x200  = 0
 c55:  x206 - x215 - x219 - x222 + x230 - x234 + x236 + x250  = 0
 c56:  x256 - x265 - x269 - x272 + x280 - x284 + x286 + x300  = 0
 c57:  x306 - x315 - x319 - x322 + x330 - x334 + x336 + x350  = 0
 c58:  x356 - x365 - x369 - x372 + x380 - x384 + x386 + x400  = 0
 c59:  x406 - x415 - x419 - x422 + x430 - x434 + x436 + x450  = 0
 c60:  x456 - x465 - x469 - x472 + x480 - x484 + x486 + x500  = 0
 c61:  - x9 + x11 + x18 - x32 + x34 + x35 + x40 - x43  = 0
 c62:  - x59 + x61 + x68 - x82 + x84 + x85 + x90 - x93  = 0
 c63:  - x109 + x111 + x118 - x132 + x134 + x135 + x140 - x143  = 1
 c64:  - x159 + x161 + x168 - x182 + x184 + x185 + x190 - x193  = 0
 c65:  - x209 + x211 + x218 - x232 + x234 + x235 + x240 - x243  = 0
 c66:  - x259 + x261 + x268 - x282 + x284 + x285 + x290 - x293  = 0
 c67:  - x309 + x311 + x318 - x332 + x334 + x335 + x340 - x343  = 0
 c68:  - x359 + x361 + x368 - x382 + x384 + x385 + x390 - x393  = 0
 c69:  - x409 + x411 + x418 - x432 + x434 + x435 + x440 - x443  = -1
 c70:  - x459 + x461 + x468 - x482 + x484 + x485 + x490 - x493  = 1
 c71:  - x4 + x10 - x13 - x20 + x21 - x30 + x31 - x33 - x46  = -1
 c72:  - x54 + x60 - x63 - x70 + x71 - x80 + x81 - x83 - x96  = 1
 c73:  - x104 + x110 - x113 - x120 + x121 - x130 + x131 - x133 - x146  = -1
 c74:  - x154 + x160 - x163 - x170 + x171 - x180 + x181 - x183 - x196  = 1
 c75:  - x204 + x210 - x213 - x220 + x221 - x230 + x231 - x233 - x246  = -1
 c76:  - x254 + x260 - x263 - x270 + x271 - x280 + x281 - x283 - x296  = 0
 c77:  - x304 + x310 - x313 - x320 + x321 - x330 + x331 - x333 - x346  = 0
 c78:  - x354 + x360 - x363 - x370 + x371 - x380 + x381 - x383 - x396  = 0
 c79:  - x404 + x410 - x413 - x420 + x421 - x430 + x431 - x433 - x446  = 1
 c80:  - x454 + x460 - x463 - x470 + x471 - x480 + x481 - x483 - x496  = 0
 c81:  x4 - x5 + x8 - x14 + x26 + x29 - x31 + x39 - x45 - x48 - x50  = 0
 c82:  x54 - x55 + x58 - x64 + x76 + x79 - x81 + x89 - x95 - x98 - x100  = 0
 c83:  x104 - x105 + x108 - x114 + x126 + x129 - x131 + x139 - x145 - x148
       - x150  = 0
 c84:  x154 - x155 + x158 - x164 + x176 + x179 - x181 + x189 - x195 - x198
       - x200  = 0
 c85:  x204 - x205 + x208 - x214 + x226 + x229 - x231 + x239 - x245 - x248
       - x250  = 0
 c86:  x254 - x255 + x258 - x264 + x276 + x279 - x281 + x289 - x295 - x298
       - x300  = 0
 c87:  x304 - x305 + x308 - x314 + x326 + x329 - x331 + x339 - x345 - x348
       - x350  = 0
 c88:  x354 - x355 + x358 - x364 + x376 + x379 - x381 + x389 - x395 - x398
       - x400  = 0
 c89:  x404 - x405 + x408 - x414 + x426 + x429 - x431 + x439 - x445 - x448
       - x450  = 0
 c90:  x454 - x455 + x458 - x464 + x476 + x479 - x481 + x489 - x495 - x498
       - x500  = 0
 c91:  - x7 - x10 + x12 - x27 - x29 + x32 + x33 - x35 - x36 - x38 - x42 + x44
       + x49  = 0
 c92:  - x57 - x60 + x62 - x77 - x79 + x82 + x83 - x85 - x86 - x88 - x92 + x94
       + x99  = 0
 c93:  - x107 - x110 + x112 - x127 - x129 + x132 + x133 - x135 - x136 - x138
       - x142 + x144 + x149  = 0
 c94:  - x157 - x160 + x162 - x177 - x179 + x182 + x183 - x185 - x186 - x188
       - x192 + x194 + x199  = 0
 c95:  - x207 - x210 + x212 - x227 - x229 + x232 + x233 - x235 - x236 - x238
       - x242 + x244 + x249  = 0
 c96:  - x257 - x260 + x262 - x277 - x279 + x282 + x283 - x285 - x286 - x288
       - x292 + x294 + x299  = -1
 c97:  - x307 - x310 + x312 - x327 - x329 + x332 + x333 - x335 - x336 - x338
       - x342 + x344 + x349  = -1
 c98:  - x357 - x360 + x362 - x377 - x379 + x382 + x383 - x385 - x386 - x388
       - x392 + x394 + x399  = 1
 c99:  - x407 - x410 + x412 - x427 - x429 + x432 + x433 - x435 - x436 - x438
       - x442 + x444 + x449  = 0
 c100: - x457 - x460 + x462 - x477 - x479 + x482 + x483 - x485 - x486 - x488
       - x492 + x494 + x499  = 0
 c101: 4 x1 + 4 x51 + 4 x101 + 4 x151 + 4 x201 + 4 x251 + 4 x301 + 4 x351
       + 4 x401 + 4 x451 - 5 x501 <= 0
 c102: 4 x2 + 4 x52 + 4 x102 + 4 x152 + 4 x202 + 4 x252 + 4 x302 + 4 x352
       + 4 x402 + 4 x452 - 5 x502 <= 0
 c103: 4 x3 + 4 x53 + 4 x103 + 4 x153 + 4 x203 + 4 x253 + 4 x303 + 4 x353
       + 4 x403 + 4 x453 - 5 x503 <= 0
 c104: 4 x4 + 4 x54 + 4 x104 + 4 x154 + 4 x204 + 4 x254 + 4 x304 + 4 x354
       + 4 x404 + 4 x454 - 5 x504 <= 0
 c105: 4 x5 + 4 x55 + 4 x105 + 4 x155 + 4 x205 + 4 x255 + 4 x305 + 4 x355
       + 4 x405 + 4 x455 - 5 x505 <= 0
 c106: 4 x6 + 4 x56 + 4 x106 + 4 x156 + 4 x206 + 4 x256 + 4 x306 + 4 x356
       + 4 x406 + 4 x456 - 5 x506 <= 0
 c107: 4 x7 + 4 x57 + 4 x107 + 4 x157 + 4 x207 + 4 x257 + 4 x307 + 4 x357
       + 4 x407 + 4 x457 - 5 x507 <= 0
 c108: 4 x8 + 4 x58 + 4 x108 + 4 x158 + 4 x208 + 4 x258 + 4 x308 + 4 x358
       + 4 x408 + 4 x458 - 5 x508 <= 0
 c109: 4 x9 + 4 x59 + 4 x109 + 4 x159 + 4 x209 + 4 x259 + 4 x309 + 4 x359
       + 4 x409 + 4 x459 - 5 x509 <= 0
 c110: 4 x10 + 4 x60 + 4 x110 + 4 x160 + 4 x210 + 4 x260 + 4 x310 + 4 x360
       + 4 x410 + 4 x460 - 5 x510 <= 0
 c111: 4 x11 + 4 x61 + 4 x111 + 4 x161 + 4 x211 + 4 x261 + 4 x311 + 4 x361
       + 4 x411 + 4 x461 - 5 x511 <= 0
 c112: 4 x12 + 4 x62 + 4 x112 + 4 x162 + 4 x212 + 4 x262 + 4 x312 + 4 x362
       + 4 x412 + 4 x462 - 5 x512 <= 0
 c113: 4 x13 + 4 x63 + 4 x113 + 4 x163 + 4 x213 + 4 x263 + 4 x313 + 4 x363
       + 4 x413 + 4 x463 - 5 x513 <= 0
 c114: 4 x14 + 4 x64 + 4 x114 + 4 x164 + 4 x214 + 4 x264 + 4 x314 + 4 x364
       + 4 x414 + 4 x464 - 5 x514 <= 0
 c115: 4 x15 + 4 x65 + 4 x115 + 4 x165 + 4 x215 + 4 x265 + 4 x315 + 4 x365
       + 4 x415 + 4 x465 - 5 x515 <= 0
 c116: 4 x16 + 4 x66 + 4 x116 + 4 x166 + 4 x216 + 4 x266 + 4 x316 + 4 x366
       + 4 x416 + 4 x466 - 5 x516 <= 0
 c117: 4 x17 + 4 x67 + 4 x117 + 4 x167 + 4 x217 + 4 x267 + 4 x317 + 4 x367
       + 4 x417 + 4 x467 - 5 x517 <= 0
 c118: 4 x18 + 4 x68 + 4 x118 + 4 x168 + 4 x218 + 4 x268 + 4 x318 + 4 x368
       + 4 x418 + 4 x468 - 5 x518 <= 0
 c119: 4 x19 + 4 x69 + 4 x119 + 4 x169 + 4 x219 + 4 x269 + 4 x319 + 4 x369
       + 4 x419 + 4 x469 - 5 x519 <= 0
 c120: 4 x20 + 4 x70 + 4 x120 + 4 x170 + 4 x220 + 4 x270 + 4 x320 + 4 x370
       + 4 x420 + 4 x470 - 5 x520 <= 0
 c121: 4 x21 + 4 x71 + 4 x121 + 4 x171 + 4 x221 + 4 x271 + 4 x321 + 4 x371
       + 4 x421 + 4 x471 - 5 x521 <= 0
 c122: 4 x22 + 4 x72 + 4 x122 + 4 x172 + 4 x222 + 4 x272 + 4 x322 + 4 x372
       + 4 x422 + 4 x472 - 5 x522 <= 0
 c123: 4 x23 + 4 x73 + 4 x123 + 4 x173 + 4 x223 + 4 x273 + 4 x323 + 4 x373
       + 4 x423 + 4 x473 - 5 x523 <= 0
 c124: 4 x24 + 4 x74 + 4 x124 + 4 x174 + 4 x224 + 4 x274 + 4 x324 + 4 x374
       + 4 x424 + 4 x474 - 5 x524 <= 0
 c125: 4 x25 + 4 x75 + 4 x125 + 4 x175 + 4 x225 + 4 x275 + 4 x325 + 4 x375
       + 4 x425 + 4 x475 - 5 x525 <= 0
 c126: 4 x26 + 4 x76 + 4 x126 + 4 x176 + 4 x226 + 4 x276 + 4 x326 + 4 x376
       + 4 x426 + 4 x476 - 5 x526 <= 0
 c127: 4 x27 + 4 x77 + 4 x127 + 4 x177 + 4 x227 + 4 x277 + 4 x327 + 4 x377
       + 4 x427 + 4 x477 - 5 x527 <= 0
 c128: 4 x28 + 4 x78 + 4 x128 + 4 x178 + 4 x228 + 4 x278 + 4 x328 + 4 x378
       + 4 x428 + 4 x478 - 5 x528 <= 0
 c129: 4 x29 + 4 x79 + 4 x129 + 4 x179 + 4 x229 + 4 x279 + 4 x329 + 4 x379
       + 4 x429 + 4 x479 - 5 x529 <= 0
 c130: 4 x30 + 4 x80 + 4 x130 + 4 x180 + 4 x230 + 4 x280 + 4 x330 + 4 x380
       + 4 x430 + 4 x480 - 5 x530 <= 0
 c131: 4 x31 + 4 x81 + 4 x131 + 4 x181 + 4 x231 + 4 x281 + 4 x331 + 4 x381
       + 4 x431 + 4 x481 - 5 x531 <= 0
 c132: 4 x32 + 4 x82 + 4 x132 + 4 x182 + 4 x232 + 4 x282 + 4 x332 + 4 x382
       + 4 x432 + 4 x482 - 5 x532 <= 0
 c133: 4 x33 + 4 x83 + 4 x133 + 4 x183 + 4 x233 + 4 x283 + 4 x333 + 4 x383
       + 4 x433 + 4 x483 - 5 x533 <= 0
 c134: 4 x34 + 4 x84 + 4 x134 + 4 x184 + 4 x234 + 4 x284 + 4 x334 + 4 x384
       + 4 x434 + 4 x484 - 5 x534 <= 0
 c135: 4 x35 + 4 x85 + 4 x135 + 4 x185 + 4 x235 + 4 x285 + 4 x335 + 4 x385
       + 4 x435 + 4 x485 - 5 x535 <= 0
 c136: 4 x36 + 4 x86 + 4 x136 + 4 x186 + 4 x236 + 4 x286 + 4 x336 + 4 x386
       + 4 x436 + 4 x486 - 5 x536 <= 0
 c137: 4 x37 + 4 x87 + 4 x137 + 4 x187 + 4 x237 + 4 x287 + 4 x337 + 4 x387
       + 4 x437 + 4 x487 - 5 x537 <= 0
 c138: 4 x38 + 4 x88 + 4 x138 + 4 x188 + 4 x238 + 4 x288 + 4 x338 + 4 x388
       + 4 x438 + 4 x488 - 5 x538 <= 0
 c139: 4 x39 + 4 x89 + 4 x139 + 4 x189 + 4 x239 + 4 x289 + 4 x339 + 4 x389
       + 4 x439 + 4 x489 - 5 x539 <= 0
 c140: 4 x40 + 4 x90 + 4 x140 + 4 x190 + 4 x240 + 4 x290 + 4 x340 + 4 x390
       + 4 x440 + 4 x490 - 5 x540 <= 0
 c141: 4 x41 + 4 x91 + 4 x141 + 4 x191 + 4 x241 + 4 x291 + 4 x341 + 4 x391
       + 4 x441 + 4 x491 - 5 x541 <= 0
 c142: 4 x42 + 4 x92 + 4 x142 + 4 x192 + 4 x242 + 4 x292 + 4 x342 + 4 x392
       + 4 x442 + 4 x492 - 5 x542 <= 0
 c143: 4 x43 + 4 x93 + 4 x143 + 4 x193 + 4 x243 + 4 x293 + 4 x343 + 4 x393
       + 4 x443 + 4 x493 - 5 x543 <= 0
 c144: 4 x44 + 4 x94 + 4 x144 + 4 x194 + 4 x244 + 4 x294 + 4 x344 + 4 x394
       + 4 x444 + 4 x494 - 5 x544 <= 0
 c145: 4 x45 + 4 x95 + 4 x145 + 4 x195 + 4 x245 + 4 x295 + 4 x345 + 4 x395
       + 4 x445 + 4 x495 - 5 x545 <= 0
 c146: 4 x46 + 4 x96 + 4 x146 + 4 x196 + 4 x246 + 4 x296 + 4 x346 + 4 x396
       + 4 x446 + 4 x496 - 5 x546 <= 0
 c147: 4 x47 + 4 x97 + 4 x147 + 4 x197 + 4 x247 + 4 x297 + 4 x347 + 4 x397
       + 4 x447 + 4 x497 - 5 x547 <= 0
 c148: 4 x48 + 4 x98 + 4 x148 + 4 x198 + 4 x248 + 4 x298 + 4 x348 + 4 x398
       + 4 x448 + 4 x498 - 5 x548 <= 0
 c149: 4 x49 + 4 x99 + 4 x149 + 4 x199 + 4 x249 + 4 x299 + 4 x349 + 4 x399
       + 4 x449 + 4 x499 - 5 x549 <= 0
 c150: 4 x50 + 4 x100 + 4 x150 + 4 x200 + 4 x250 + 4 x300 + 4 x350 + 4 x400
       + 4 x450 + 4 x500 - 5 x550 <= 0
Bounds
 0 <= x1 <= 1
 0 <= x2 <= 1
 0 <= x3 <= 1
 0 <= x4 <= 1
 0 <= x5 <= 1
 0 <= x6 <= 1
 0 <= x7 <= 1
 0 <= x8 <= 1
 0 <= x9 <= 1
 0 <= x10 <= 1
 0 <= x11 <= 1
 0 <= x12 <= 1
 0 <= x13 <= 1
 0 <= x14 <= 1
 0 <= x15 <= 1
 0 <= x16 <= 1
 0 <= x17 <= 1
 0 <= x18 <= 1
 0 <= x19 <= 1
 0 <= x20 <= 1
 0 <= x21 <= 1
 0 <= x22 <= 1
 0 <= x23 <= 1
 0 <= x24 <= 1
 0 <= x25 <= 1
 0 <= x26 <= 1
 0 <= x27 <= 1
 0 <= x28 <= 1
 0 <= x29 <= 1
 0 <= x30 <= 1
 0 <= x31 <= 1
 0 <= x32 <= 1
 0 <= x33 <= 1
 0 <= x34 <= 1
 0 <= x35 <= 1
 0 <= x36 <= 1
 0 <= x37 <= 1
 0 <= x38 <= 1
 0 <= x39 <= 1
 0 <= x40 <= 1
 0 <= x41 <= 1
 0 <= x42 <= 1
 0 <= x43 <= 1
 0 <= x44 <= 1
 0 <= x45 <= 1
 0 <= x46 <= 1
 0 <= x47 <= 1
 0 <= x48 <= 1
 0 <= x49 <= 1
 0 <= x50 <= 1
 0 <= x51 <= 1
 0 <= x52 <= 1
 0 <= x53 <= 1
 0 <= x54 <= 1
 0 <= x55 <= 1
 0 <= x56 <= 1
 0 <= x57 <= 1
 0 <= x58 <= 1
 0 <= x59 <= 1
 0 <= x60 <= 1
 0 <= x61 <= 1
 0 <= x62 <= 1
 0 <= x63 <= 1
 0 <= x64 <= 1
 0 <= x65 <= 1
 0 <= x66 <= 1
 0 <= x67 <= 1
 0 <= x68 <= 1
 0 <= x69 <= 1
 0 <= x70 <= 1
 0 <= x71 <= 1
 0 <= x72 <= 1
 0 <= x73 <= 1
 0 <= x74 <= 1
 0 <= x75 <= 1
 0 <= x76 <= 1
 0 <= x77 <= 1
 0 <= x78 <= 1
 0 <= x79 <= 1
 0 <= x80 <= 1
 0 <= x81 <= 1
 0 <= x82 <= 1
 0 <= x83 <= 1
 0 <= x84 <= 1
 0 <= x85 <= 1
 0 <= x86 <= 1
 0 <= x87 <= 1
 0 <= x88 <= 1
 0 <= x89 <= 1
 0 <= x90 <= 1
 0 <= x91 <= 1
 0 <= x92 <= 1
 0 <= x93 <= 1
 0 <= x94 <= 1
 0 <= x95 <= 1
 0 <= x96 <= 1
 0 <= x97 <= 1
 0 <= x98 <= 1
 0 <= x99 <= 1
 0 <= x100 <= 1
 0 <= x101 <= 1
 0 <= x102 <= 1
 0 <= x103 <= 1
 0 <= x104 <= 1
 0 <= x105 <= 1
 0 <= x106 <= 1
 0 <= x107 <= 1
 0 <= x108 <= 1
 0 <= x109 <= 1
 0 <= x110 <= 1
 0 <= x111 <= 1
 0 <= x112 <= 1
 0 <= x113 <= 1
 0 <= x114 <= 1
 0 <= x115 <= 1
 0 <= x116 <= 1
 0 <= x117 <= 1
 0 <= x118 <= 1
 0 <= x119 <= 1
 0 <= x120 <= 1
 0 <= x121 <= 1
 0 <= x122 <= 1
 0 <= x123 <= 1
 0 <= x124 <= 1
 0 <= x125 <= 1
 0 <= x126 <= 1
 0 <= x127 <= 1
 0 <= x128 <= 1
 0 <= x129 <= 1
 0 <= x130 <= 1
 0 <= x131 <= 1
 0 <= x132 <= 1
 0 <= x133 <= 1
 0 <= x134 <= 1
 0 <= x135 <= 1
 0 <= x136 <= 1
 0 <= x137 <= 1
 0 <= x138 <= 1
 0 <= x139 <= 1
 0 <= x140 <= 1
 0 <= x141 <= 1
 0 <= x142 <= 1
 0 <= x143 <= 1
 0 <= x144 <= 1
 0 <= x145 <= 1
 0 <= x146 <= 1
 0 <= x147 <= 1
 0 <= x148 <= 1
 0 <= x149 <= 1
 0 <= x150 <= 1
 0 <= x151 <= 1
 0 <= x152 <= 1
 0 <= x153 <= 1
 0 <= x154 <= 1
 0 <= x155 <= 1
 0 <= x156 <= 1
 0 <= x157 <= 1
 0 <= x158 <= 1
 0 <= x159 <= 1
 0 <= x160 <= 1
 0 <= x161 <= 1
 0 <= x162 <= 1
 0 <= x163 <= 1
 0 <= x164 <= 1
 0 <= x165 <= 1
 0 <= x166 <= 1
 0 <= x167 <= 1
 0 <= x168 <= 1
 0 <= x169 <= 1
 0 <= x170 <= 1
 0 <= x171 <= 1
 0 <= x172 <= 1
 0 <= x173 <= 1
 0 <= x174 <= 1
 0 <= x175 <= 1
 0 <= x176 <= 1
 0 <= x177 <= 1
 0 <= x178 <= 1
 0 <= x179 <= 1
 0 <= x180 <= 1
 0 <= x181 <= 1
 0 <= x182 <= 1
 0 <= x183 <= 1
 0 <= x184 <= 1
 0 <= x185 <= 1
 0 <= x186 <= 1
 0 <= x187 <= 1
 0 <= x188 <= 1
 0 <= x189 <= 1
 0 <= x190 <= 1
 0 <= x191 <= 1
 0 <= x192 <= 1
 0 <= x193 <= 1
 0 <= x194 <= 1
 0 <= x195 <= 1
 0 <= x196 <= 1
 0 <= x197 <= 1
 0 <= x198 <= 1
 0 <= x199 <= 1
 0 <= x200 <= 1
 0 <= x201 <= 1
 0 <= x202 <= 1
 0 <= x203 <= 1
 0 <= x204 <= 1
 0 <= x205 <= 1
 0 <= x206 <= 1
 0 <= x207 <= 1
 0 <= x208 <= 1
 0 <= x209 <= 1
 0 <= x210 <= 1
 0 <= x211 <= 1
 0 <= x212 <= 1
 0 <= x213 <= 1
 0 <= x214 <= 1
 0 <= x215 <= 1
 0 <= x216 <= 1
 0 <= x217 <= 1
 0 <= x218 <= 1
 0 <= x219 <= 1
 0 <= x220 <= 1
 0 <= x221 <= 1
 0 <= x222 <= 1
 0 <= x223 <= 1
 0 <= x224 <= 1
 0 <= x225 <= 1
 0 <= x226 <= 1
 0 <= x227 <= 1
 0 <= x228 <= 1
 0 <= x229 <= 1
 0 <= x230 <= 1
 0 <= x231 <= 1
 0 <= x232 <= 1
 0 <= x233 <= 1
 0 <= x234 <= 1
 0 <= x235 <= 1
 0 <= x236 <= 1
 0 <= x237 <= 1
 0 <= x238 <= 1
 0 <= x239 <= 1
 0 <= x240 <= 1
 0 <= x241 <= 1
 0 <= x242 <= 1
 0 <= x243 <= 1
 0 <= x244 <= 1
 0 <= x245 <= 1
 0 <= x246 <= 1
 0 <= x247 <= 1
 0 <= x248 <= 1
 0 <= x249 <= 1
 0 <= x250 <= 1
 0 <= x251 <= 1
 0 <= x252 <= 1
 0 <= x253 <= 1
 0 <= x254 <= 1
 0 <= x255 <= 1
 0 <= x256 <= 1
 0 <= x257 <= 1
 0 <= x258 <= 1
 0 <= x259 <= 1
 0 <= x260 <= 1
 0 <= x261 <= 1
 0 <= x262 <= 1
 0 <= x263 <= 1
 0 <= x264 <= 1
 0 <= x265 <= 1
 0 <= x266 <= 1
 0 <= x267 <= 1
 0 <= x268 <= 1
 0 <= x269 <= 1
 0 <= x270 <= 1
 0 <= x271 <= 1
 0 <= x272 <= 1
 0 <= x273 <= 1
 0 <= x274 <= 1
 0 <= x275 <= 1
 0 <= x276 <= 1
 0 <= x277 <= 1
 0 <= x278 <= 1
 0 <= x279 <= 1
 0 <= x280 <= 1
 0 <= x281 <= 1
 0 <= x282 <= 1
 0 <= x283 <= 1
 0 <= x284 <= 1
 0 <= x285 <= 1
 0 <= x286 <= 1
 0 <= x287 <= 1
 0 <= x288 <= 1
 0 <= x289 <= 1
 0 <= x290 <= 1
 0 <= x291 <= 1
 0 <= x292 <= 1
 0 <= x293 <= 1
 0 <= x294 <= 1
 0 <= x295 <= 1
 0 <= x296 <= 1
 0 <= x297 <= 1
 0 <= x298 <= 1
 0 <= x299 <= 1
 0 <= x300 <= 1
 0 <= x301 <= 1
 0 <= x302 <= 1
 0 <= x303 <= 1
 0 <= x304 <= 1
 0 <= x305 <= 1
 0 <= x306 <= 1
 0 <= x307 <= 1
 0 <= x308 <= 1
 0 <= x309 <= 1
 0 <= x310 <= 1
 0 <= x311 <= 1
 0 <= x312 <= 1
 0 <= x313 <= 1
 0 <= x314 <= 1
 0 <= x315 <= 1
 0 <= x316 <= 1
 0 <= x317 <= 1
 0 <= x318 <= 1
 0 <= x319 <= 1
 0 <= x320 <= 1
 0 <= x321 <= 1
 0 <= x322 <= 1
 0 <= x323 <= 1
 0 <= x324 <= 1
 0 <= x325 <= 1
 0 <= x326 <= 1
 0 <= x327 <= 1
 0 <= x328 <= 1
 0 <= x329 <= 1
 0 <= x330 <= 1
 0 <= x331 <= 1
 0 <= x332 <= 1
 0 <= x333 <= 1
 0 <= x334 <= 1
 0 <= x335 <= 1
 0 <= x336 <= 1
 0 <= x337 <= 1
 0 <= x338 <= 1
 0 <= x339 <= 1
 0 <= x340 <= 1
 0 <= x341 <= 1
 0 <= x342 <= 1
 0 <= x343 <= 1
 0 <= x344 <= 1
 0 <= x345 <= 1
 0 <= x346 <= 1
 0 <= x347 <= 1
 0 <= x348 <= 1
 0 <= x349 <= 1
 0 <= x350 <= 1
 0 <= x351 <= 1
 0 <= x352 <= 1
 0 <= x353 <= 1
 0 <= x354 <= 1
 0 <= x355 <= 1
 0 <= x356 <= 1
 0 <= x357 <= 1
 0 <= x358 <= 1
 0 <= x359 <= 1
 0 <= x360 <= 1
 0 <= x361 <= 1
 0 <= x362 <= 1
 0 <= x363 <= 1
 0 <= x364 <= 1
 0 <= x365 <= 1
 0 <= x366 <= 1
 0 <= x367 <= 1
 0 <= x368 <= 1
 0 <= x369 <= 1
 0 <= x370 <= 1
 0 <= x371 <= 1
 0 <= x372 <= 1
 0 <= x373 <= 1
 0 <= x374 <= 1
 0 <= x375 <= 1
 0 <= x376 <= 1
 0 <= x377 <= 1
 0 <= x378 <= 1
 0 <= x379 <= 1
 0 <= x380 <= 1
 0 <= x381 <= 1
 0 <= x382 <= 1
 0 <= x383 <= 1
 0 <= x384 <= 1
 0 <= x385 <= 1
 0 <= x386 <= 1
 0 <= x387 <= 1
 0 <= x388 <= 1
 0 <= x389 <= 1
 0 <= x390 <= 1
 0 <= x391 <= 1
 0 <= x392 <= 1
 0 <= x393 <= 1
 0 <= x394 <= 1
 0 <= x395 <= 1
 0 <= x396 <= 1
 0 <= x397 <= 1
 0 <= x398 <= 1
 0 <= x399 <= 1
 0 <= x400 <= 1
 0 <= x401 <= 1
 0 <= x402 <= 1
 0 <= x403 <= 1
 0 <= x404 <= 1
 0 <= x405 <= 1
 0 <= x406 <= 1
 0 <= x407 <= 1
 0 <= x408 <= 1
 0 <= x409 <= 1
 0 <= x410 <= 1
 0 <= x411 <= 1
 0 <= x412 <= 1
 0 <= x413 <= 1
 0 <= x414 <= 1
 0 <= x415 <= 1
 0 <= x416 <= 1
 0 <= x417 <= 1
 0 <= x418 <= 1
 0 <= x419 <= 1
 0 <= x420 <= 1
 0 <= x421 <= 1
 0 <= x422 <= 1
 0 <= x423 <= 1
 0 <= x424 <= 1
 0 <= x425 <= 1
 0 <= x426 <= 1
 0 <= x427 <= 1
 0 <= x428 <= 1
 0 <= x429 <= 1
 0 <= x430 <= 1
 0 <= x431 <= 1
 0 <= x432 <= 1
 0 <= x433 <= 1
 0 <= x434 <= 1
 0 <= x435 <= 1
 0 <= x436 <= 1
 0 <= x437 <= 1
 0 <= x438 <= 1
 0 <= x439 <= 1
 0 <= x440 <= 1
 0 <= x441 <= 1
 0 <= x442 <= 1
 0 <= x443 <= 1
 0 <= x444 <= 1
 0 <= x445 <= 1
 0 <= x446 <= 1
 0 <= x447 <= 1
 0 <= x448 <= 1
 0 <= x449 <= 1
 0 <= x450 <= 1
 0 <= x451 <= 1
 0 <= x452 <= 1
 0 <= x453 <= 1
 0 <= x454 <= 1
 0 <= x455 <= 1
 0 <= x456 <= 1
 0 <= x457 <= 1
 0 <= x458 <= 1
 0 <= x459 <= 1
 0 <= x460 <= 1
 0 <= x461 <= 1
 0 <= x462 <= 1
 0 <= x463 <= 1
 0 <= x464 <= 1
 0 <= x465 <= 1
 0 <= x466 <= 1
 0 <= x467 <= 1
 0 <= x468 <= 1
 0 <= x469 <= 1
 0 <= x470 <= 1
 0 <= x471 <= 1
 0 <= x472 <= 1
 0 <= x473 <= 1
 0 <= x474 <= 1
 0 <= x475 <= 1
 0 <= x476 <= 1
 0 <= x477 <= 1
 0 <= x478 <= 1
 0 <= x479 <= 1
 0 <= x480 <= 1
 0 <= x481 <= 1
 0 <= x482 <= 1
 0 <= x483 <= 1
 0 <= x484 <= 1
 0 <= x485 <= 1
 0 <= x486 <= 1
 0 <= x487 <= 1
 0 <= x488 <= 1
 0 <= x489 <= 1
 0 <= x490 <= 1
 0 <= x491 <= 1
 0 <= x492 <= 1
 0 <= x493 <= 1
 0 <= x494 <= 1
 0 <= x495 <= 1
 0 <= x496 <= 1
 0 <= x497 <= 1
 0 <= x498 <= 1
 0 <= x499 <= 1
 0 <= x500 <= 1
 0 <= x501 <= 1
 0 <= x502 <= 1
 0 <= x503 <= 1
 0 <= x504 <= 1
 0 <= x505 <= 1
 0 <= x506 <= 1
 0 <= x507 <= 1
 0 <= x508 <= 1
 0 <= x509 <= 1
 0 <= x510 <= 1
 0 <= x511 <= 1
 0 <= x512 <= 1
 0 <= x513 <= 1
 0 <= x514 <= 1
 0 <= x515 <= 1
 0 <= x516 <= 1
 0 <= x517 <= 1
 0 <= x518 <= 1
 0 <= x519 <= 1
 0 <= x520 <= 1
 0 <= x521 <= 1
 0 <= x522 <= 1
 0 <= x523 <= 1
 0 <= x524 <= 1
 0 <= x525 <= 1
 0 <= x526 <= 1
 0 <= x527 <= 1
 0 <= x528 <= 1
 0 <= x529 <= 1
 0 <= x530 <= 1
 0 <= x531 <= 1
 0 <= x532 <= 1
 0 <= x533 <= 1
 0 <= x534 <= 1
 0 <= x535 <= 1
 0 <= x536 <= 1
 0 <= x537 <= 1
 0 <= x538 <= 1
 0 <= x539 <= 1
 0 <= x540 <= 1
 0 <= x541 <= 1
 0 <= x542 <= 1
 0 <= x543 <= 1
 0 <= x544 <= 1
 0 <= x545 <= 1
 0 <= x546 <= 1
 0 <= x547 <= 1
 0 <= x548 <= 1
 0 <= x549 <= 1
 0 <= x550 <= 1
Binaries
 x501  x502  x503  x504  x505  x506  x507  x508  x509  x510  x511  x512  x513 
 x514  x515  x516  x517  x518  x519  x520  x521  x522  x523  x524  x525  x526 
 x527  x528  x529  x530  x531  x532  x533  x534  x535  x536  x537  x538  x539 
 x540  x541  x542  x543  x544  x545  x546  x547  x548  x549  x550 
End
